db/data/972224457104975672938827673620211856.z3.out
-------------------
2500.133176515
